SPARKNaCl/why3-z3/sparknacl-hashing-rfsb509.adb_169_10_predicate_check_1.smt2
;; produced by z3_gnatprove.drv ;;
(set-info :smt-lib-version 2.5)
(set-info :source |VC generated by SPARK 2014|)
(set-info :category industrial)
(set-info :status unknown)
;;; generated by SMT-LIB2 driver
;;; SMT-LIB2 driver: bit-vectors, common part
;;; SMT-LIB2: integer arithmetic
(declare-datatypes ()
  ((int__ref (int__refqtmk (int__content Int)))))

(declare-sort byte 0)

;; "to_rep"
(declare-fun to_rep (byte) (_ BitVec 8))

;; "of_rep"
(declare-fun of_rep ((_ BitVec 8)) byte)

;; "inversion_axiom"
(assert
  (forall ((x byte)) (! (= (of_rep (to_rep x)) x) :pattern ((to_rep x)) )))

;; "range_axiom"
(assert true)

;; "coerce_axiom"
(assert
  (forall ((x (_ BitVec 8)))
    (! (= (to_rep (of_rep x)) x) :pattern ((to_rep (of_rep x))) )))

(declare-sort map1 0)

(declare-datatypes ()
  ((map__ref (map__refqtmk (map__content map1)))))

;; "has_bounds"
(declare-fun has_bounds (map1
  Int
  Int) Bool)

;; "get"
(declare-fun get (map1
  Int) byte)

;; "set"
(declare-fun set (map1
  Int
  byte) map1)

;; "set_eq"
(assert
  (forall ((a map1) (i Int) (v byte))
    (! (= (get (set a i v) i) v) :pattern ((set a i v)) )))

;; "set_neq"
(assert
  (forall ((a map1) (i Int) (v byte))
    (! (forall ((j Int))
         (! (=> (not (= i j)) (= (get (set a i v) j) (get a j))) :pattern (
         (get
           a
           j)) :pattern ((get (set a i v) j)) )) :pattern ((set a i v)) )))

;; "set_has_bounds"
(assert
  (forall ((a map1) (i Int) (f Int) (l Int) (v byte))
    (! (=>
         (and (<= f i) (<= i l))
         (=> (has_bounds a f l) (has_bounds (set a i v) f l))) :pattern (
    (has_bounds
      (set a i v)
      f
      l)) )))

(declare-const summand map1)

;; "dynamic_invariant"
(define-fun dynamic_invariant ((temp___expr_371 map1) (temp___is_init_367 Bool) (temp___skip_constant_368 Bool) (temp___do_toplevel_369 Bool) (temp___do_typ_inv_370 Bool)) Bool
  (and
    (=>
      (= temp___is_init_367 true)
      (=>
        (= temp___do_toplevel_369 true)
        (= (bvand (to_rep (get temp___expr_371 63)) #xE0) #x00)))
    (has_bounds temp___expr_371 0 63)))

(declare-const sum map1)

;; "sum'unused"
(define-fun sumqtunused () map__ref
  (map__refqtmk sum))

;; "Assume"
(assert (dynamic_invariant sum true false true true))

;; "Assume"
(assert (dynamic_invariant summand true false true true))

(declare-const i Int)

;; "i'unused"
(define-fun iqtunused () int__ref
  (int__refqtmk i))

;; "H"
(assert (= i 0))

;; "int__content'result'unused"
(define-fun int__contentqtresultqtunused () Int
  i)

;; "o"
(define-fun o () Bool
  (ite (<= i 63) true false))

;; "infix <='result'unused"
(define-fun infix_lseqqtresultqtunused () Bool
  o)

;; "int__content'result'unused"
(define-fun int__contentqtresultqtunused1 () Int
  i)

;; "o"
(define-fun o1 () Bool
  (ite (<= 0 i) true false))

;; "infix <='result'unused"
(define-fun infix_lseqqtresultqtunused1 () Bool
  o1)

;; "o"
(define-fun o2 () Bool
  (and o1 o))

;; "andb'result'unused"
(define-fun andbqtresultqtunused () Bool
  o2)

;; "H"
(assert (= o2 true))

;; "temp___loop_entry_855'unused"
(define-fun temp___loop_entry_855qtunused () map1
  sum)

;; "map__content'result'unused"
(define-fun map__contentqtresultqtunused () map1
  sum)

(declare-const sum1 map1)

(declare-const i1 Int)

;; "i'unused"
(define-fun iqtunused1 () int__ref
  (int__refqtmk i1))

;; "sum'unused"
(define-fun sumqtunused1 () map__ref
  (map__refqtmk sum1))

;; "Assume"
(assert
  (= (and (ite (and
                 (dynamic_invariant sum1 true true true true)
                 (forall ((temp___856 Int))
                   (=>
                     (and (<= 0 temp___856) (<= temp___856 63))
                     (=>
                       (or
                         (< 63 temp___856)
                         (or (< temp___856 0) (<= i1 temp___856)))
                       (= (get sum1 temp___856) (get sum temp___856))))))
            true
            false) (ite (and (<= 0 i1) (<= i1 63)) true false)) true))

;; "int__content'result'unused"
(define-fun int__contentqtresultqtunused2 () Int
  i1)

;; "o"
(define-fun o3 () byte
  (get summand i1))

;; "get'result'unused"
(define-fun getqtresultqtunused () byte
  o3)

(declare-const o4 (_ BitVec 8))

;; "Ensures"
(assert (= (to_rep o3) o4))

;; "to_rep'result'unused"
(define-fun to_repqtresultqtunused () (_ BitVec 8)
  o4)

;; "int__content'result'unused"
(define-fun int__contentqtresultqtunused3 () Int
  i1)

;; "map__content'result'unused"
(define-fun map__contentqtresultqtunused1 () map1
  sum1)

;; "o"
(define-fun o5 () byte
  (get sum1 i1))

;; "get'result'unused"
(define-fun getqtresultqtunused1 () byte
  o5)

(declare-const o6 (_ BitVec 8))

;; "Ensures"
(assert (= (to_rep o5) o6))

;; "to_rep'result'unused"
(define-fun to_repqtresultqtunused1 () (_ BitVec 8)
  o6)

;; "o"
(define-fun o7 () (_ BitVec 8)
  (bvxor o6 o4))

;; "bw_xor'result'unused"
(define-fun bw_xorqtresultqtunused () (_ BitVec 8)
  o7)

(declare-const o8 byte)

;; "Ensures"
(assert (= (to_rep o8) o7))

;; "of_rep'result'unused"
(define-fun of_repqtresultqtunused () byte
  o8)

;; "int__content'result'unused"
(define-fun int__contentqtresultqtunused4 () Int
  i1)

;; "map__content'result'unused"
(define-fun map__contentqtresultqtunused2 () map1
  sum1)

;; "temp___852"
(define-fun temp___852 () map1
  (set sum1 i1 o8))

;; "set'result'unused"
(define-fun setqtresultqtunused () map1
  temp___852)

;; Goal "def'vc"
;; File "sparknacl-hashing-rfsb509.adb", line 50, characters 0-0
(assert
  (not (= (bvand (to_rep (get temp___852 63)) #xE0) #x00)))

(check-sat)
